NAME: generated_12_sym_1_100_UniformDistrib_noSparse.tsp
TYPE: TSP
COMMENT: Test case generated with custom generator!
DIMENSION: 12
EDGE_WEIGHT_TYPE: EXPLICIT
EDGE_WEIGHT_FORMAT: FULL_MATRIX
DISPLAY_DATA_TYPE: TWOD_DISPLAY
EDGE_WEIGHT_SECTION
0 14 11 31 90 100 7 19 8 28 61 57 
14 0 30 54 18 78 70 37 29 39 81 57 
11 30 0 34 49 76 7 73 62 46 100 84 
31 54 34 0 59 57 62 88 20 99 12 55 
90 18 49 59 0 67 70 5 47 44 95 18 
100 78 76 57 67 0 19 74 53 97 98 58 
7 70 7 62 70 19 0 22 86 50 14 36 
19 37 73 88 5 74 22 0 70 46 61 62 
8 29 62 20 47 53 86 70 0 79 9 22 
28 39 46 99 44 97 50 46 79 0 17 74 
61 81 100 12 95 98 14 61 9 17 0 100 
57 57 84 55 18 58 36 62 22 74 100 0 
